25
 0  10   0   0   0  10   0   0   0   0   0   0   0   0   0   0   0   0   0   0   0   0   0   0   0
10   0  10   0   0   0  10   0   0   0   0   0   0   0   0   0   0   0   0   0   0   0   0   0   0
 0  10   0  10   0   0   0  10   0   0   0   0   0   0   0   0   0   0   0   0   0   0   0   0   0
 0   0  10   0  10   0   0   0  10   0   0   0   0   0   0   0   0   0   0   0   0   0   0   0   0
 0   0   0  10   0  10   0   0   0  10   0   0   0   0   0   0   0   0   0   0   0   0   0   0   0
10   0   0   0   0   0  10   0   0   0  10   0   0   0   0   0   0   0   0   0   0   0   0   0   0
 0  10   0   0   0  10   0  10   0   0   0  10   0   0   0   0   0   0   0   0   0   0   0   0   0
 0   0  10   0   0   0  10   0  10   0   0   0  10   0   0   0   0   0   0   0   0   0   0   0   0
 0   0   0  10   0   0   0  10   0  10   0   0   0  10   0   0   0   0   0   0   0   0   0   0   0
 0   0   0   0  10   0   0   0  10   0   0   0   0   0  10   0   0   0   0   0   0   0   0   0   0
 0   0   0   0   0  10   0   0   0   0   0  10   0   0   0  10   0   0   0   0   0   0   0   0   0
 0   0   0   0   0   0  10   0   0   0  10   0  10   0   0   0  10   0   0   0   0   0   0   0   0
 0   0   0   0   0   0   0  10   0   0   0  10   0  10   0   0   0  10   0   0   0   0   0   0   0
 0   0   0   0   0   0   0   0  10   0   0   0  10   0  10   0   0   0  10   0   0   0   0   0   0
 0   0   0   0   0   0   0   0   0  10   0   0   0  10   0   0   0   0   0  10   0   0   0   0   0
 0   0   0   0   0   0   0   0   0   0  10   0   0   0   0   0  10   0   0   0  10   0   0   0   0
 0   0   0   0   0   0   0   0   0   0   0  10   0   0   0  10   0  10   0   0   0  10   0   0   0
 0   0   0   0   0   0   0   0   0   0   0   0  10   0   0   0  10   0  10   0   0   0  10   0   0
 0   0   0   0   0   0   0   0   0   0   0   0   0  10   0   0   0  10   0  10   0   0   0  10   0
 0   0   0   0   0   0   0   0   0   0   0   0   0   0  10   0   0   0  10   0   0   0   0   0  10
 0   0   0   0   0   0   0   0   0   0   0   0   0   0   0  10   0   0   0   0   0  10   0   0   0
 0   0   0   0   0   0   0   0   0   0   0   0   0   0   0   0  10   0   0   0  10   0  10   0   0
 0   0   0   0   0   0   0   0   0   0   0   0   0   0   0   0   0  10   0   0   0  10   0  10   0
 0   0   0   0   0   0   0   0   0   0   0   0   0   0   0   0   0   0  10   0   0   0  10   0  10
 0   0   0   0   0   0   0   0   0   0   0   0   0   0   0   0   0   0   0  10   0   0   0  10   0
0 0
10 0
20 0
30 0
40 0
0 10
10 10
20 10
30 10
40 10
0 20
10 20
20 20
30 20
40 20
0 30
10 30
20 30
30 30
40 30
0 40
10 40
20 40
30 40
40 40
12
9
17 24 1 22 3 14 19 7 9